100
1000
200
199
198
198
198
198
197
197
197
196
196
195
194
194
193
193
193
193
192
192
191
191
191
190
189
189
187
187
187
187
186
185
184
184
184
183
182
181
181
180
180
180
180
180
179
179
179
176
176
175
173
173
173
172
172
172
172
171
171
169
168
168
167
166
166
165
164
164
164
164
164
163
163
162
161
161
161
160
160
160
159
158
157
157
157
156
155
155
155
155
155
155
154
153
152
152
151
151
151
150
